33D32945 STP File, STP Format Version 1.0

SECTION Comments
Name "edge_n10_d3_s28"
Problem "Euclidean Steiner Tree Problem"
Remark "Generated with STPGenerator. 3 dimensions."
END

SECTION Graph
Nodes 10
END

SECTION Coordinates
DDD 0 0.5171551050 0.5171551050 0.5171551050
DDD 1 0.0449436945 0.0449436945 0.0449436945
DDD 2 0.4524295369 0.4524295369 0.4524295369
DDD 3 0.4422129730 0.4422129730 0.4422129730
DDD 4 0.1277577337 0.1277577337 0.1277577337
DDD 5 0.1569511728 0.1569511728 0.1569511728
DDD 6 0.0837527169 0.0837527169 0.0837527169
DDD 7 0.7310733133 0.7310733133 0.7310733133
DDD 8 0.0224596341 0.0224596341 0.0224596341
DDD 9 0.3412099454 0.3412099454 0.3412099454
END
